Route #1: 57 94 64 105 69 17 2 77 67
Route #2: 74 99 11 34 72 29 96
Route #3: 49 21 85 54 13 40 31 63 82
Route #4: 52 15 76 87 60 51 45
Route #5: 53 43 103 28 93 97 101 92
Route #6: 83 48 8 36 91 88 58 14
Route #7: 26 90 24 104 1 44 100 5
Route #8: 102 12 9 84 75 7 62
Route #9: 22 33
Route #10: 66 46 71 79 37 27 19 78
Route #11: 86 18 41 10 16 20 56
Route #12: 59 89 30 42 23 3 32 73 35
Route #13: 39 50 81 6 70 4 98 55
Route #14: 25 47 61 80 65 38 95 68
Cost 26392
